Cost: 1530
0-30-27-23-24-10-33-18-19-20-21-22-28-29-31-0
0-2-4-5-7-6-32-0
0-3-35-13-12-34-8-9-11-14-15-16-1-0
Cost: 1530
0-30-27-23-24-10-33-18-19-20-21-22-28-29-31-0
0-2-4-5-7-6-32-0
0-3-35-13-12-34-8-9-11-14-15-16-1-0
Cost: 1530
0-30-27-23-24-10-33-18-19-20-21-22-28-29-31-0
0-2-4-5-7-6-32-0
0-3-35-13-12-34-8-9-11-14-15-16-1-0
Cost: 1530
0-30-27-23-24-10-33-18-19-20-21-22-28-29-31-0
0-2-4-5-7-6-32-0
0-3-35-13-12-34-8-9-11-14-15-16-1-0
Cost: 1530
0-30-27-23-24-10-33-18-19-20-21-22-28-29-31-0
0-2-4-5-7-6-32-0
0-3-35-13-12-34-8-9-11-14-15-16-1-0
Cost: 1530
0-30-27-23-24-10-33-18-19-20-21-22-28-29-31-0
0-2-4-5-7-6-32-0
0-3-35-13-12-34-8-9-11-14-15-16-1-0
Cost: 1530
0-30-27-23-24-10-33-18-19-20-21-22-28-29-31-0
0-2-4-5-7-6-32-0
0-3-35-13-12-34-8-9-11-14-15-16-1-0
Cost: 1530
0-30-27-23-24-10-33-18-19-20-21-22-28-29-31-0
0-2-4-5-7-6-32-0
0-3-35-13-12-34-8-9-11-14-15-16-1-0
Cost: 1530
0-30-27-23-24-10-33-18-19-20-21-22-28-29-31-0
0-2-4-5-7-6-32-0
0-3-35-13-12-34-8-9-11-14-15-16-1-0
Cost: 1530
0-30-27-23-24-10-33-18-19-20-21-22-28-29-31-0
0-2-4-5-7-6-32-0
0-3-35-13-12-34-8-9-11-14-15-16-1-0
Cost: 1530
0-30-27-23-24-10-33-18-19-20-21-22-28-29-31-0
0-2-4-5-7-6-32-0
0-3-35-13-12-34-8-9-11-14-15-16-1-0
Cost: 1530
0-2-3-35-13-12-34-8-9-11-14-15-16-1-0
0-30-27-23-24-10-33-18-19-20-21-22-28-29-31-0
0-4-5-7-6-32-0
Cost: 1530
0-2-3-35-13-12-34-8-9-11-14-15-16-1-0
0-30-27-23-24-10-33-18-19-20-21-22-28-29-31-0
0-4-5-7-6-32-0
Cost: 1530
0-2-3-35-13-12-34-8-9-11-14-15-16-1-0
0-30-27-23-24-10-33-18-19-20-21-22-28-29-31-0
0-4-5-7-6-32-0
Cost: 1530
0-2-3-35-13-12-34-8-9-11-14-15-16-1-0
0-30-27-23-24-10-33-18-19-20-21-22-28-29-31-0
0-4-5-7-6-32-0
Cost: 1530
0-2-3-35-13-12-34-8-9-11-14-15-16-1-0
0-30-27-23-24-10-33-18-19-20-21-22-28-29-31-0
0-4-5-7-6-32-0
Cost: 1530
0-2-3-35-13-12-34-8-9-11-14-15-16-1-0
0-30-27-23-24-10-33-18-19-20-21-22-28-29-31-0
0-4-5-7-6-32-0
Cost: 1530
0-2-3-35-13-12-34-8-9-11-14-15-16-1-0
0-30-27-23-24-10-33-18-19-20-21-22-28-29-31-0
0-4-5-7-6-32-0
Cost: 1530
0-2-3-35-13-12-34-8-9-11-14-15-16-1-0
0-30-27-23-24-10-33-18-19-20-21-22-28-29-31-0
0-4-5-7-6-32-0
Cost: 1530
0-2-3-35-13-12-34-8-9-11-14-15-16-1-0
0-30-27-23-24-10-33-18-19-20-21-22-28-29-31-0
0-4-5-7-6-32-0
Cost: 1530
0-2-3-35-13-12-34-8-9-11-14-15-16-1-0
0-30-27-23-24-10-33-18-19-20-21-22-28-29-31-0
0-4-5-7-6-32-0
Cost: 1530
0-2-3-35-13-12-34-8-9-11-14-15-16-1-0
0-30-27-23-24-10-33-18-19-20-21-22-28-29-31-0
0-4-5-7-6-32-0
Cost: 1530
0-2-3-35-13-12-34-8-9-11-14-15-16-1-0
0-30-27-23-24-10-33-18-19-20-21-22-28-29-31-0
0-4-5-7-6-32-0
Cost: 1530
0-2-3-35-13-12-34-8-9-11-14-15-16-1-0
0-30-27-23-24-10-33-18-19-20-21-22-28-29-31-0
0-4-5-7-6-32-0
Cost: 1530
0-2-3-35-13-12-34-8-9-11-14-15-16-1-0
0-30-27-23-24-10-33-18-19-20-21-22-28-29-31-0
0-4-5-7-6-32-0
Cost: 1530
0-4-5-7-6-32-0
0-30-27-23-24-10-33-18-19-20-21-22-28-29-31-0
0-2-3-35-13-12-34-8-9-11-14-15-16-1-0
Cost: 1530
0-2-3-35-13-12-34-8-9-11-14-15-16-1-0
0-30-27-23-24-10-33-18-19-20-21-22-28-29-31-0
0-4-5-7-6-32-0
Cost: 1530
0-2-3-35-13-12-34-8-9-11-14-15-16-1-0
0-30-27-23-24-10-33-18-19-20-21-22-28-29-31-0
0-4-5-7-6-32-0
Cost: 1530
0-2-3-35-13-12-34-8-9-11-14-15-16-1-0
0-30-27-23-24-10-33-18-19-20-21-22-28-29-31-0
0-4-5-7-6-32-0
Cost: 1530
0-2-3-35-13-12-34-8-9-11-14-15-16-1-0
0-30-27-23-24-10-33-18-19-20-21-22-28-29-31-0
0-4-5-7-6-32-0
Cost: 1530
0-2-3-35-13-12-34-8-9-11-14-15-16-1-0
0-30-27-23-24-10-33-18-19-20-21-22-28-29-31-0
0-4-5-7-6-32-0
Cost: 1530
0-2-3-35-13-12-34-8-9-11-14-15-16-1-0
0-30-27-23-24-10-33-18-19-20-21-22-28-29-31-0
0-4-5-7-6-32-0
Cost: 1530
0-4-5-7-6-32-0
0-30-27-23-24-10-33-18-19-20-21-22-28-29-31-0
0-2-3-35-13-12-34-8-9-11-14-15-16-1-0
Cost: 1530
0-3-35-13-12-34-8-9-11-14-15-16-1-0
0-2-4-5-7-6-32-0
0-30-27-23-24-10-33-18-19-20-21-22-28-29-31-0
Cost: 1530
0-30-27-23-24-10-33-18-19-20-21-22-28-29-31-0
0-2-3-35-13-12-34-8-9-11-14-15-16-1-0
0-4-5-7-6-32-0
Cost: 1530
0-3-35-13-12-34-8-9-11-14-15-16-1-0
0-30-27-23-24-10-33-18-19-20-21-22-28-29-31-0
0-2-4-5-7-6-32-0
